(set-option :produce-unsat-cores true )
(set-logic AUFDTLIA )
(declare-sort N$ 0 )
(declare-sort T$ 0 )
(declare-sort Dtree$ 0 )
(declare-sort N_set$ 0 )
(declare-sort T_set$ 0 )
(declare-sort N_N_fun$ 0 )
(declare-sort T_T_fun$ 0 )
(declare-sort T_set_set$ 0 )
(declare-sort N_bool_fun$ 0 )
(declare-sort T_bool_fun$ 0 )
(declare-sort Dtree_N_fun$ 0 )
(declare-sort N_dtree_fun$ 0 )
(declare-sort T_N_sum_set$ 0 )
(declare-sort N_T_N_sum_fun$ 0 )
(declare-sort T_N_sum_N_fun$ 0 )
(declare-sort Dtree_dtree_fun$ 0 )
(declare-sort N_set_N_set_fun$ 0 )
(declare-sort T_dtree_sum_set$ 0 )
(declare-sort T_set_T_set_fun$ 0 )
(declare-sort T_N_sum_bool_fun$ 0 )
(declare-sort N_T_dtree_sum_fun$ 0 )
(declare-sort T_dtree_sum_N_fun$ 0 )
(declare-sort T_N_sum_T_N_sum_fun$ 0 )
(declare-sort Dtree_N_bool_fun_fun$ 0 )
(declare-sort Dtree_T_bool_fun_fun$ 0 )
(declare-sort T_dtree_sum_bool_fun$ 0 )
(declare-sort N_set_set_N_set_set_fun$ 0 )
(declare-sort T_N_sum_T_dtree_sum_fun$ 0 )
(declare-sort T_dtree_sum_T_N_sum_fun$ 0 )
(declare-sort T_set_set_T_set_set_fun$ 0 )
(declare-sort T_N_sum_set_T_N_sum_set_fun$ 0 )
(declare-sort T_dtree_sum_T_dtree_sum_fun$ 0 )
(declare-sort N_set_dtree_T_bool_fun_fun_fun$ 0 )
(declare-sort N_N_fun_T_N_sum_T_N_sum_fun_fun$ 0 )
(declare-sort T_set_set_set_T_set_set_set_fun$ 0 )
(declare-sort T_dtree_sum_set_T_dtree_sum_set_fun$ 0 )
(declare-sort Dtree_N_fun_T_dtree_sum_T_N_sum_fun_fun$ 0 )
(declare-sort N_dtree_fun_T_N_sum_T_dtree_sum_fun_fun$ 0 )
(declare-sort Dtree_dtree_fun_T_dtree_sum_T_dtree_sum_fun_fun$ 0 )
(declare-sort T_dtree_sum$ 0)
(declare-sort T_N_sum$ 0)
(declare-fun projl$ (T_dtree_sum$)T$)
(declare-fun inl$ (T$ )T_dtree_sum$)
(declare-fun projr$ (T_dtree_sum$)Dtree$)
(declare-fun inr$ (Dtree$ )T_dtree_sum$)
(declare-fun projl$a (T_N_sum$)T$)
(declare-fun inl$a (T$ )T_N_sum$)
(declare-fun projr$a (T_N_sum$)N$)
(declare-fun inr$a (N$ )T_N_sum$)
(declare-fun id$ ()T_T_fun$ )
(declare-fun tr$ ()Dtree$ )
(declare-fun uu$ (T_dtree_sum_set$ )T_dtree_sum_bool_fun$ )
(declare-fun wf$ (Dtree$ )Bool )
(declare-fun id$a ()N_set_N_set_fun$ )
(declare-fun id$b ()N_set_set_N_set_set_fun$ )
(declare-fun id$c ()T_set_set_T_set_set_fun$ )
(declare-fun id$d ()T_set_set_set_T_set_set_set_fun$ )
(declare-fun id$e ()T_dtree_sum_T_dtree_sum_fun$ )
(declare-fun id$f ()T_dtree_sum_set_T_dtree_sum_set_fun$ )
(declare-fun id$g ()T_N_sum_T_N_sum_fun$ )
(declare-fun id$h ()T_N_sum_set_T_N_sum_set_fun$ )
(declare-fun id$i ()T_set_T_set_fun$ )
(declare-fun id$j ()N_N_fun$ )
(declare-fun tr$a ()Dtree$ )
(declare-fun uua$ (T_N_sum_set$ )T_N_sum_bool_fun$ )
(declare-fun uub$ (N_set$ )N_bool_fun$ )
(declare-fun cont$ (Dtree$ )T_dtree_sum_set$ )
(declare-fun inFr$ ()N_set_dtree_T_bool_fun_fun_fun$ )
(declare-fun root$ ()Dtree_N_fun$ )
(declare-fun image$ (T_dtree_sum_T_N_sum_fun$ T_dtree_sum_set$ )T_N_sum_set$ )
(declare-fun inFr2$ ()N_set_dtree_T_bool_fun_fun_fun$ )
(declare-fun inItr$ (N_set$ )Dtree_N_bool_fun_fun$ )
(declare-fun image$a (T_dtree_sum_T_dtree_sum_fun$ )T_dtree_sum_set_T_dtree_sum_set_fun$ )
(declare-fun image$b (T_N_sum_T_dtree_sum_fun$ T_N_sum_set$ )T_dtree_sum_set$ )
(declare-fun image$c (T_N_sum_T_N_sum_fun$ )T_N_sum_set_T_N_sum_set_fun$ )
(declare-fun image$d (N_set_N_set_fun$ )N_set_set_N_set_set_fun$ )
(declare-fun image$e (T_set_set_T_set_set_fun$ )T_set_set_set_T_set_set_set_fun$ )
(declare-fun image$f (T_set_T_set_fun$ )T_set_set_T_set_set_fun$ )
(declare-fun image$g (N_N_fun$ )N_set_N_set_fun$ )
(declare-fun image$h (T_T_fun$ )T_set_T_set_fun$ )
(declare-fun image$i (T_dtree_sum_N_fun$ T_dtree_sum_set$ )N_set$ )
(declare-fun image$j (T_N_sum_N_fun$ T_N_sum_set$ )N_set$ )
(declare-fun image$k (N_T_dtree_sum_fun$ N_set$ )T_dtree_sum_set$ )
(declare-fun image$l (N_T_N_sum_fun$ N_set$ )T_N_sum_set$ )
(declare-fun member$ (T_dtree_sum$ T_dtree_sum_set$ )Bool )
(declare-fun subtr2$ (N_set$ Dtree$ Dtree$ )Bool )
(declare-fun collect$ (N_bool_fun$ )N_set$ )
(declare-fun fun_app$ (T_dtree_sum_bool_fun$ T_dtree_sum$ )Bool )
(declare-fun map_sum$ (T_T_fun$ )Dtree_N_fun_T_dtree_sum_T_N_sum_fun_fun$ )
(declare-fun member$a (T_N_sum$ T_N_sum_set$ )Bool )
(declare-fun member$b (N$ N_set$ )Bool )
(declare-fun member$c (T$ T_set$ )Bool )
(declare-fun subtrOf$ (Dtree$ )N_dtree_fun$ )
(declare-fun collect$a (T_N_sum_bool_fun$ )T_N_sum_set$ )
(declare-fun collect$b (T_dtree_sum_bool_fun$ )T_dtree_sum_set$ )
(declare-fun fun_app$a (T_N_sum_bool_fun$ T_N_sum$ )Bool )
(declare-fun fun_app$b (N_bool_fun$ N$ )Bool )
(declare-fun fun_app$c (Dtree_N_fun$ Dtree$ )N$ )
(declare-fun fun_app$d (N_dtree_fun$ N$ )Dtree$ )
(declare-fun fun_app$e (Dtree_N_fun_T_dtree_sum_T_N_sum_fun_fun$ Dtree_N_fun$ )T_dtree_sum_T_N_sum_fun$ )
(declare-fun fun_app$f (T_bool_fun$ T$ )Bool )
(declare-fun fun_app$g (Dtree_T_bool_fun_fun$ Dtree$ )T_bool_fun$ )
(declare-fun fun_app$h (N_set_dtree_T_bool_fun_fun_fun$ N_set$ )Dtree_T_bool_fun_fun$ )
(declare-fun fun_app$i (Dtree_N_bool_fun_fun$ Dtree$ )N_bool_fun$ )
(declare-fun fun_app$j (T_dtree_sum_set_T_dtree_sum_set_fun$ T_dtree_sum_set$ )T_dtree_sum_set$ )
(declare-fun fun_app$k (Dtree_dtree_fun_T_dtree_sum_T_dtree_sum_fun_fun$ Dtree_dtree_fun$ )T_dtree_sum_T_dtree_sum_fun$ )
(declare-fun fun_app$l (Dtree_dtree_fun$ Dtree$ )Dtree$ )
(declare-fun fun_app$m (N_dtree_fun_T_N_sum_T_dtree_sum_fun_fun$ N_dtree_fun$ )T_N_sum_T_dtree_sum_fun$ )
(declare-fun fun_app$n (T_N_sum_set_T_N_sum_set_fun$ T_N_sum_set$ )T_N_sum_set$ )
(declare-fun fun_app$o (N_N_fun_T_N_sum_T_N_sum_fun_fun$ N_N_fun$ )T_N_sum_T_N_sum_fun$ )
(declare-fun fun_app$p (N_N_fun$ N$ )N$ )
(declare-fun fun_app$q (N_set_N_set_fun$ N_set$ )N_set$ )
(declare-fun fun_app$r (T_set_set_T_set_set_fun$ T_set_set$ )T_set_set$ )
(declare-fun fun_app$s (T_set_T_set_fun$ T_set$ )T_set$ )
(declare-fun fun_app$t (T_T_fun$ T$ )T$ )
(declare-fun fun_app$u (T_dtree_sum_N_fun$ T_dtree_sum$ )N$ )
(declare-fun fun_app$v (T_N_sum_N_fun$ T_N_sum$ )N$ )
(declare-fun fun_app$w (N_T_dtree_sum_fun$ N$ )T_dtree_sum$ )
(declare-fun fun_app$x (N_T_N_sum_fun$ N$ )T_N_sum$ )
(declare-fun fun_app$y (T_dtree_sum_T_dtree_sum_fun$ T_dtree_sum$ )T_dtree_sum$ )
(declare-fun fun_app$z (T_dtree_sum_T_N_sum_fun$ T_dtree_sum$ )T_N_sum$ )
(declare-fun map_sum$a (T_T_fun$ )Dtree_dtree_fun_T_dtree_sum_T_dtree_sum_fun_fun$ )
(declare-fun map_sum$b (T_T_fun$ )N_dtree_fun_T_N_sum_T_dtree_sum_fun_fun$ )
(declare-fun map_sum$c (T_T_fun$ )N_N_fun_T_N_sum_T_N_sum_fun_fun$ )
(declare-fun fun_app$aa (T_N_sum_T_dtree_sum_fun$ T_N_sum$ )T_dtree_sum$ )
(declare-fun fun_app$ab (T_N_sum_T_N_sum_fun$ T_N_sum$ )T_N_sum$ )
(assert (! (forall ((?v0 T_dtree_sum_set$ )(?v1 T_dtree_sum$ ))(! (= (fun_app$ (uu$ ?v0 )?v1 )(member$ ?v1 ?v0 )):pattern ((fun_app$ (uu$ ?v0 )?v1 )))):named a0 ))
(assert (! (forall ((?v0 T_N_sum_set$ )(?v1 T_N_sum$ ))(! (= (fun_app$a (uua$ ?v0 )?v1 )(member$a ?v1 ?v0 )):pattern ((fun_app$a (uua$ ?v0 )?v1 )))):named a1 ))
(assert (! (forall ((?v0 N_set$ )(?v1 N$ ))(! (= (fun_app$b (uub$ ?v0 )?v1 )(member$b ?v1 ?v0 )):pattern ((fun_app$b (uub$ ?v0 )?v1 )))):named a2 ))
(assert (! (not (= (fun_app$c root$ (fun_app$d (subtrOf$ tr$ )(fun_app$c root$ tr$a )))(fun_app$c root$ tr$a ))):named a3 ))
(assert (! (wf$ tr$ ):named a4 ))
(assert (! (member$ (inr$ tr$a )(cont$ tr$ )):named a5 ))
(assert (! (member$ (inr$ (fun_app$d (subtrOf$ tr$ )(fun_app$c root$ tr$a )))(cont$ tr$ )):named a6 ))
(assert (! (forall ((?v0 N$ )(?v1 Dtree$ ))(=> (member$a (inr$a ?v0 )(image$ (fun_app$e (map_sum$ id$ )root$ )(cont$ ?v1 )))(= (fun_app$c root$ (fun_app$d (subtrOf$ ?v1 )?v0 ))?v0 ))):named a7 ))
(assert (! (forall ((?v0 N_set$ )(?v1 Dtree$ )(?v2 T$ ))(=> (fun_app$f (fun_app$g (fun_app$h inFr2$ ?v0 )?v1 )?v2 )(member$b (fun_app$c root$ ?v1 )?v0 ))):named a8 ))
(assert (! (forall ((?v0 N_set$ )(?v1 Dtree$ )(?v2 N$ ))(=> (fun_app$b (fun_app$i (inItr$ ?v0 )?v1 )?v2 )(member$b (fun_app$c root$ ?v1 )?v0 ))):named a9 ))
(assert (! (forall ((?v0 Dtree$ )(?v1 N_set$ ))(=> (member$b (fun_app$c root$ ?v0 )?v1 )(fun_app$b (fun_app$i (inItr$ ?v1 )?v0 )(fun_app$c root$ ?v0 )))):named a10 ))
(assert (! (forall ((?v0 N_set$ )(?v1 Dtree$ )(?v2 T$ ))(=> (fun_app$f (fun_app$g (fun_app$h inFr$ ?v0 )?v1 )?v2 )(member$b (fun_app$c root$ ?v1 )?v0 ))):named a11 ))
(assert (! (forall ((?v0 Dtree$ )(?v1 N_set$ )(?v2 T$ ))(=> (not (member$b (fun_app$c root$ ?v0 )?v1 ))(not (fun_app$f (fun_app$g (fun_app$h inFr$ ?v1 )?v0 )?v2 )))):named a12 ))
(assert (! (forall ((?v0 Dtree$ )(?v1 Dtree$ ))(=> (and (= (fun_app$c root$ ?v0 )(fun_app$c root$ ?v1 ))(= (cont$ ?v0 )(cont$ ?v1 )))(= ?v0 ?v1 ))):named a13 ))
(assert (! (forall ((?v0 N_set$ )(?v1 Dtree$ )(?v2 Dtree$ ))(=> (subtr2$ ?v0 ?v1 ?v2 )(member$b (fun_app$c root$ ?v2 )?v0 ))):named a14 ))
(assert (! (forall ((?v0 N_set$ )(?v1 Dtree$ )(?v2 Dtree$ ))(=> (subtr2$ ?v0 ?v1 ?v2 )(member$b (fun_app$c root$ ?v1 )?v0 ))):named a15 ))
(assert (! (forall ((?v0 Dtree$ )(?v1 N_set$ ))(=> (member$b (fun_app$c root$ ?v0 )?v1 )(subtr2$ ?v1 ?v0 ?v0 ))):named a16 ))
(assert (! (forall ((?v0 Dtree$ )(?v1 Dtree$ )(?v2 Dtree$ ))(=> (and (wf$ ?v0 )(and (member$ (inr$ ?v1 )(cont$ ?v0 ))(member$ (inr$ ?v2 )(cont$ ?v0 ))))(= (= (fun_app$c root$ ?v1 )(fun_app$c root$ ?v2 ))(= ?v1 ?v2 )))):named a17 ))
(assert (! (= inFr$ inFr2$ ):named a18 ))
(assert (! (forall ((?v0 N_set$ )(?v1 Dtree$ )(?v2 Dtree$ )(?v3 Dtree$ ))(=> (and (subtr2$ ?v0 ?v1 ?v2 )(subtr2$ ?v0 ?v2 ?v3 ))(subtr2$ ?v0 ?v1 ?v3 ))):named a19 ))
(assert (! (forall ((?v0 Dtree$ )(?v1 Dtree$ ))(=> (and (wf$ ?v0 )(member$ (inr$ ?v1 )(cont$ ?v0 )))(wf$ ?v1 ))):named a20 ))
(assert (! (forall ((?v0 Dtree$ )(?v1 Dtree$ ))(=> (member$ (inr$ ?v0 )(cont$ ?v1 ))(member$a (inr$a (fun_app$c root$ ?v0 ))(image$ (fun_app$e (map_sum$ id$ )root$ )(cont$ ?v1 ))))):named a21 ))
(assert (! (forall ((?v0 Dtree$ )(?v1 N_set$ )(?v2 Dtree$ )(?v3 Dtree$ ))(=> (and (member$b (fun_app$c root$ ?v0 )?v1 )(and (member$ (inr$ ?v0 )(cont$ ?v2 ))(subtr2$ ?v1 ?v2 ?v3 )))(subtr2$ ?v1 ?v0 ?v3 ))):named a22 ))
(assert (! (forall ((?v0 Dtree$ )(?v1 N_set$ )(?v2 Dtree$ )(?v3 Dtree$ ))(=> (and (member$b (fun_app$c root$ ?v0 )?v1 )(and (member$ (inr$ ?v2 )(cont$ ?v0 ))(subtr2$ ?v1 ?v3 ?v2 )))(subtr2$ ?v1 ?v3 ?v0 ))):named a23 ))
(assert (! (forall ((?v0 N_set$ )(?v1 Dtree$ )(?v2 Dtree$ ))(=> (and (subtr2$ ?v0 ?v1 ?v2 )(and (forall ((?v3 Dtree$ )(?v4 N_set$ ))(=> (and (= ?v0 ?v4 )(and (= ?v1 ?v3 )(and (= ?v2 ?v3 )(member$b (fun_app$c root$ ?v3 )?v4 ))))false ))(forall ((?v3 Dtree$ )(?v4 N_set$ )(?v5 Dtree$ )(?v6 Dtree$ ))(=> (and (= ?v0 ?v4 )(and (= ?v1 ?v3 )(and (= ?v2 ?v6 )(and (member$b (fun_app$c root$ ?v3 )?v4 )(and (member$ (inr$ ?v3 )(cont$ ?v5 ))(subtr2$ ?v4 ?v5 ?v6 ))))))false ))))false )):named a24 ))
(assert (! (forall ((?v0 N_set$ )(?v1 Dtree$ )(?v2 Dtree$ ))(= (subtr2$ ?v0 ?v1 ?v2 )(or (exists ((?v3 Dtree$ )(?v4 N_set$ ))(and (= ?v0 ?v4 )(and (= ?v1 ?v3 )(and (= ?v2 ?v3 )(member$b (fun_app$c root$ ?v3 )?v4 )))))(exists ((?v3 Dtree$ )(?v4 N_set$ )(?v5 Dtree$ )(?v6 Dtree$ ))(and (= ?v0 ?v4 )(and (= ?v1 ?v3 )(and (= ?v2 ?v6 )(and (member$b (fun_app$c root$ ?v3 )?v4 )(and (member$ (inr$ ?v3 )(cont$ ?v5 ))(subtr2$ ?v4 ?v5 ?v6 )))))))))):named a25 ))
(assert (! (forall ((?v0 Dtree$ )(?v1 N_set$ )(?v2 Dtree$ )(?v3 T$ ))(=> (and (member$b (fun_app$c root$ ?v0 )?v1 )(and (member$ (inr$ ?v2 )(cont$ ?v0 ))(fun_app$f (fun_app$g (fun_app$h inFr$ ?v1 )?v2 )?v3 )))(fun_app$f (fun_app$g (fun_app$h inFr$ ?v1 )?v0 )?v3 ))):named a26 ))
(assert (! (forall ((?v0 Dtree$ )(?v1 N_set$ )(?v2 Dtree$ )(?v3 N$ ))(=> (and (member$b (fun_app$c root$ ?v0 )?v1 )(and (member$ (inr$ ?v2 )(cont$ ?v0 ))(fun_app$b (fun_app$i (inItr$ ?v1 )?v2 )?v3 )))(fun_app$b (fun_app$i (inItr$ ?v1 )?v0 )?v3 ))):named a27 ))
(assert (! (forall ((?v0 N_set$ )(?v1 Dtree$ )(?v2 N$ ))(=> (and (fun_app$b (fun_app$i (inItr$ ?v0 )?v1 )?v2 )(and (forall ((?v3 Dtree$ )(?v4 N_set$ ))(=> (and (= ?v0 ?v4 )(and (= ?v1 ?v3 )(and (= ?v2 (fun_app$c root$ ?v3 ))(member$b (fun_app$c root$ ?v3 )?v4 ))))false ))(forall ((?v3 Dtree$ )(?v4 N_set$ )(?v5 Dtree$ )(?v6 N$ ))(=> (and (= ?v0 ?v4 )(and (= ?v1 ?v3 )(and (= ?v2 ?v6 )(and (member$b (fun_app$c root$ ?v3 )?v4 )(and (member$ (inr$ ?v5 )(cont$ ?v3 ))(fun_app$b (fun_app$i (inItr$ ?v4 )?v5 )?v6 ))))))false ))))false )):named a28 ))
(assert (! (forall ((?v0 N_set$ )(?v1 Dtree$ )(?v2 N$ ))(= (fun_app$b (fun_app$i (inItr$ ?v0 )?v1 )?v2 )(or (exists ((?v3 Dtree$ )(?v4 N_set$ ))(and (= ?v0 ?v4 )(and (= ?v1 ?v3 )(and (= ?v2 (fun_app$c root$ ?v3 ))(member$b (fun_app$c root$ ?v3 )?v4 )))))(exists ((?v3 Dtree$ )(?v4 N_set$ )(?v5 Dtree$ )(?v6 N$ ))(and (= ?v0 ?v4 )(and (= ?v1 ?v3 )(and (= ?v2 ?v6 )(and (member$b (fun_app$c root$ ?v3 )?v4 )(and (member$ (inr$ ?v5 )(cont$ ?v3 ))(fun_app$b (fun_app$i (inItr$ ?v4 )?v5 )?v6 )))))))))):named a29 ))
(assert (! (forall ((?v0 N_set$ )(?v1 Dtree$ )(?v2 T$ )(?v3 Dtree$ ))(=> (and (fun_app$f (fun_app$g (fun_app$h inFr2$ ?v0 )?v1 )?v2 )(and (member$b (fun_app$c root$ ?v3 )?v0 )(member$ (inr$ ?v1 )(cont$ ?v3 ))))(fun_app$f (fun_app$g (fun_app$h inFr2$ ?v0 )?v3 )?v2 ))):named a30 ))
(assert (! (forall ((?v0 N$ )(?v1 Dtree$ ))(=> (member$a (inr$a ?v0 )(image$ (fun_app$e (map_sum$ id$ )root$ )(cont$ ?v1 )))(member$ (inr$ (fun_app$d (subtrOf$ ?v1 )?v0 ))(cont$ ?v1 )))):named a31 ))
(assert (! (forall ((?v0 N$ )(?v1 Dtree$ ))(=> (member$a (inr$a ?v0 )(image$ (fun_app$e (map_sum$ id$ )root$ )(cont$ ?v1 )))(and (member$ (inr$ (fun_app$d (subtrOf$ ?v1 )?v0 ))(cont$ ?v1 ))(= (fun_app$c root$ (fun_app$d (subtrOf$ ?v1 )?v0 ))?v0 )))):named a32 ))
(assert (! (forall ((?v0 Dtree$ )(?v1 Dtree_dtree_fun$ )(?v2 T_dtree_sum_set$ ))(= (member$ (inr$ ?v0 )(fun_app$j (image$a (fun_app$k (map_sum$a id$ )?v1 ))?v2 ))(exists ((?v3 Dtree$ ))(and (member$ (inr$ ?v3 )?v2 )(= (fun_app$l ?v1 ?v3 )?v0 ))))):named a33 ))
(assert (! (forall ((?v0 Dtree$ )(?v1 N_dtree_fun$ )(?v2 T_N_sum_set$ ))(= (member$ (inr$ ?v0 )(image$b (fun_app$m (map_sum$b id$ )?v1 )?v2 ))(exists ((?v3 N$ ))(and (member$a (inr$a ?v3 )?v2 )(= (fun_app$d ?v1 ?v3 )?v0 ))))):named a34 ))
(assert (! (forall ((?v0 N$ )(?v1 N_N_fun$ )(?v2 T_N_sum_set$ ))(= (member$a (inr$a ?v0 )(fun_app$n (image$c (fun_app$o (map_sum$c id$ )?v1 ))?v2 ))(exists ((?v3 N$ ))(and (member$a (inr$a ?v3 )?v2 )(= (fun_app$p ?v1 ?v3 )?v0 ))))):named a35 ))
(assert (! (forall ((?v0 N$ )(?v1 Dtree_N_fun$ )(?v2 T_dtree_sum_set$ ))(= (member$a (inr$a ?v0 )(image$ (fun_app$e (map_sum$ id$ )?v1 )?v2 ))(exists ((?v3 Dtree$ ))(and (member$ (inr$ ?v3 )?v2 )(= (fun_app$c ?v1 ?v3 )?v0 ))))):named a36 ))
(assert (! (= (image$d id$a )id$b ):named a37 ))
(assert (! (= (image$e id$c )id$d ):named a38 ))
(assert (! (= (image$a id$e )id$f ):named a39 ))
(assert (! (= (image$c id$g )id$h ):named a40 ))
(assert (! (= (image$f id$i )id$c ):named a41 ))
(assert (! (= (image$g id$j )id$a ):named a42 ))
(assert (! (= (image$h id$ )id$i ):named a43 ))
(assert (! (forall ((?v0 Dtree$ )(?v1 Dtree_dtree_fun$ )(?v2 T_dtree_sum_set$ ))(=> (member$ (inr$ ?v0 )(fun_app$j (image$a (fun_app$k (map_sum$a id$ )?v1 ))?v2 ))(exists ((?v3 Dtree$ ))(and (member$ (inr$ ?v3 )?v2 )(= (fun_app$l ?v1 ?v3 )?v0 ))))):named a44 ))
(assert (! (forall ((?v0 Dtree$ )(?v1 N_dtree_fun$ )(?v2 T_N_sum_set$ ))(=> (member$ (inr$ ?v0 )(image$b (fun_app$m (map_sum$b id$ )?v1 )?v2 ))(exists ((?v3 N$ ))(and (member$a (inr$a ?v3 )?v2 )(= (fun_app$d ?v1 ?v3 )?v0 ))))):named a45 ))
(assert (! (forall ((?v0 N$ )(?v1 N_N_fun$ )(?v2 T_N_sum_set$ ))(=> (member$a (inr$a ?v0 )(fun_app$n (image$c (fun_app$o (map_sum$c id$ )?v1 ))?v2 ))(exists ((?v3 N$ ))(and (member$a (inr$a ?v3 )?v2 )(= (fun_app$p ?v1 ?v3 )?v0 ))))):named a46 ))
(assert (! (forall ((?v0 N$ )(?v1 Dtree_N_fun$ )(?v2 T_dtree_sum_set$ ))(=> (member$a (inr$a ?v0 )(image$ (fun_app$e (map_sum$ id$ )?v1 )?v2 ))(exists ((?v3 Dtree$ ))(and (member$ (inr$ ?v3 )?v2 )(= (fun_app$c ?v1 ?v3 )?v0 ))))):named a47 ))
(assert (! (forall ((?v0 Dtree$ )(?v1 Dtree$ ))(= (= (inr$ ?v0 )(inr$ ?v1 ))(= ?v0 ?v1 ))):named a48 ))
(assert (! (forall ((?v0 N$ )(?v1 N$ ))(= (= (inr$a ?v0 )(inr$a ?v1 ))(= ?v0 ?v1 ))):named a49 ))
(assert (! (forall ((?v0 Dtree$ )(?v1 Dtree$ ))(= (= (inr$ ?v0 )(inr$ ?v1 ))(= ?v0 ?v1 ))):named a50 ))
(assert (! (forall ((?v0 N$ )(?v1 N$ ))(= (= (inr$a ?v0 )(inr$a ?v1 ))(= ?v0 ?v1 ))):named a51 ))
(assert (! (forall ((?v0 N$ ))(! (= (fun_app$p id$j ?v0 )?v0 ):pattern ((fun_app$p id$j ?v0 )))):named a52 ))
(assert (! (forall ((?v0 N_set$ ))(! (= (fun_app$q id$a ?v0 )?v0 ):pattern ((fun_app$q id$a ?v0 )))):named a53 ))
(assert (! (forall ((?v0 T_set_set$ ))(! (= (fun_app$r id$c ?v0 )?v0 ):pattern ((fun_app$r id$c ?v0 )))):named a54 ))
(assert (! (forall ((?v0 T_set$ ))(! (= (fun_app$s id$i ?v0 )?v0 ):pattern ((fun_app$s id$i ?v0 )))):named a55 ))
(assert (! (forall ((?v0 T$ ))(! (= (fun_app$t id$ ?v0 )?v0 ):pattern ((fun_app$t id$ ?v0 )))):named a56 ))
(assert (! (forall ((?v0 N$ )(?v1 N_N_fun$ )(?v2 N$ )(?v3 N_set$ ))(=> (and (= ?v0 (fun_app$p ?v1 ?v2 ))(member$b ?v2 ?v3 ))(member$b ?v0 (fun_app$q (image$g ?v1 )?v3 )))):named a57 ))
(assert (! (forall ((?v0 N$ )(?v1 T_dtree_sum_N_fun$ )(?v2 T_dtree_sum$ )(?v3 T_dtree_sum_set$ ))(=> (and (= ?v0 (fun_app$u ?v1 ?v2 ))(member$ ?v2 ?v3 ))(member$b ?v0 (image$i ?v1 ?v3 )))):named a58 ))
(assert (! (forall ((?v0 N$ )(?v1 T_N_sum_N_fun$ )(?v2 T_N_sum$ )(?v3 T_N_sum_set$ ))(=> (and (= ?v0 (fun_app$v ?v1 ?v2 ))(member$a ?v2 ?v3 ))(member$b ?v0 (image$j ?v1 ?v3 )))):named a59 ))
(assert (! (forall ((?v0 T_dtree_sum$ )(?v1 N_T_dtree_sum_fun$ )(?v2 N$ )(?v3 N_set$ ))(=> (and (= ?v0 (fun_app$w ?v1 ?v2 ))(member$b ?v2 ?v3 ))(member$ ?v0 (image$k ?v1 ?v3 )))):named a60 ))
(assert (! (forall ((?v0 T_N_sum$ )(?v1 N_T_N_sum_fun$ )(?v2 N$ )(?v3 N_set$ ))(=> (and (= ?v0 (fun_app$x ?v1 ?v2 ))(member$b ?v2 ?v3 ))(member$a ?v0 (image$l ?v1 ?v3 )))):named a61 ))
(assert (! (forall ((?v0 T_dtree_sum$ )(?v1 T_dtree_sum_T_dtree_sum_fun$ )(?v2 T_dtree_sum$ )(?v3 T_dtree_sum_set$ ))(=> (and (= ?v0 (fun_app$y ?v1 ?v2 ))(member$ ?v2 ?v3 ))(member$ ?v0 (fun_app$j (image$a ?v1 )?v3 )))):named a62 ))
(assert (! (forall ((?v0 T_N_sum$ )(?v1 T_dtree_sum_T_N_sum_fun$ )(?v2 T_dtree_sum$ )(?v3 T_dtree_sum_set$ ))(=> (and (= ?v0 (fun_app$z ?v1 ?v2 ))(member$ ?v2 ?v3 ))(member$a ?v0 (image$ ?v1 ?v3 )))):named a63 ))
(assert (! (forall ((?v0 T_dtree_sum$ )(?v1 T_N_sum_T_dtree_sum_fun$ )(?v2 T_N_sum$ )(?v3 T_N_sum_set$ ))(=> (and (= ?v0 (fun_app$aa ?v1 ?v2 ))(member$a ?v2 ?v3 ))(member$ ?v0 (image$b ?v1 ?v3 )))):named a64 ))
(assert (! (forall ((?v0 T_N_sum$ )(?v1 T_N_sum_T_N_sum_fun$ )(?v2 T_N_sum$ )(?v3 T_N_sum_set$ ))(=> (and (= ?v0 (fun_app$ab ?v1 ?v2 ))(member$a ?v2 ?v3 ))(member$a ?v0 (fun_app$n (image$c ?v1 )?v3 )))):named a65 ))
(assert (! (forall ((?v0 T$ )(?v1 T_T_fun$ )(?v2 T$ )(?v3 T_set$ ))(=> (and (= ?v0 (fun_app$t ?v1 ?v2 ))(member$c ?v2 ?v3 ))(member$c ?v0 (fun_app$s (image$h ?v1 )?v3 )))):named a66 ))
(assert (! (forall ((?v0 T_T_fun$ )(?v1 Dtree_dtree_fun$ )(?v2 Bool )(?v3 Dtree$ )(?v4 T_dtree_sum$ ))(= (fun_app$y (fun_app$k (map_sum$a ?v0 )?v1 )(ite ?v2 (inr$ ?v3 )?v4 ))(ite ?v2 (inr$ (fun_app$l ?v1 ?v3 ))(fun_app$y (fun_app$k (map_sum$a ?v0 )?v1 )?v4 )))):named a67 ))
(assert (! (forall ((?v0 T_T_fun$ )(?v1 N_dtree_fun$ )(?v2 Bool )(?v3 N$ )(?v4 T_N_sum$ ))(= (fun_app$aa (fun_app$m (map_sum$b ?v0 )?v1 )(ite ?v2 (inr$a ?v3 )?v4 ))(ite ?v2 (inr$ (fun_app$d ?v1 ?v3 ))(fun_app$aa (fun_app$m (map_sum$b ?v0 )?v1 )?v4 )))):named a68 ))
(assert (! (forall ((?v0 T_T_fun$ )(?v1 N_N_fun$ )(?v2 Bool )(?v3 N$ )(?v4 T_N_sum$ ))(= (fun_app$ab (fun_app$o (map_sum$c ?v0 )?v1 )(ite ?v2 (inr$a ?v3 )?v4 ))(ite ?v2 (inr$a (fun_app$p ?v1 ?v3 ))(fun_app$ab (fun_app$o (map_sum$c ?v0 )?v1 )?v4 )))):named a69 ))
(assert (! (forall ((?v0 T_T_fun$ )(?v1 Dtree_N_fun$ )(?v2 Bool )(?v3 Dtree$ )(?v4 T_dtree_sum$ ))(= (fun_app$z (fun_app$e (map_sum$ ?v0 )?v1 )(ite ?v2 (inr$ ?v3 )?v4 ))(ite ?v2 (inr$a (fun_app$c ?v1 ?v3 ))(fun_app$z (fun_app$e (map_sum$ ?v0 )?v1 )?v4 )))):named a70 ))
(assert (! (forall ((?v0 T_T_fun$ )(?v1 Dtree_dtree_fun$ )(?v2 Bool )(?v3 T_dtree_sum$ )(?v4 Dtree$ ))(= (fun_app$y (fun_app$k (map_sum$a ?v0 )?v1 )(ite ?v2 ?v3 (inr$ ?v4 )))(ite ?v2 (fun_app$y (fun_app$k (map_sum$a ?v0 )?v1 )?v3 )(inr$ (fun_app$l ?v1 ?v4 ))))):named a71 ))
(assert (! (forall ((?v0 T_T_fun$ )(?v1 N_dtree_fun$ )(?v2 Bool )(?v3 T_N_sum$ )(?v4 N$ ))(= (fun_app$aa (fun_app$m (map_sum$b ?v0 )?v1 )(ite ?v2 ?v3 (inr$a ?v4 )))(ite ?v2 (fun_app$aa (fun_app$m (map_sum$b ?v0 )?v1 )?v3 )(inr$ (fun_app$d ?v1 ?v4 ))))):named a72 ))
(assert (! (forall ((?v0 T_T_fun$ )(?v1 N_N_fun$ )(?v2 Bool )(?v3 T_N_sum$ )(?v4 N$ ))(= (fun_app$ab (fun_app$o (map_sum$c ?v0 )?v1 )(ite ?v2 ?v3 (inr$a ?v4 )))(ite ?v2 (fun_app$ab (fun_app$o (map_sum$c ?v0 )?v1 )?v3 )(inr$a (fun_app$p ?v1 ?v4 ))))):named a73 ))
(assert (! (forall ((?v0 T_T_fun$ )(?v1 Dtree_N_fun$ )(?v2 Bool )(?v3 T_dtree_sum$ )(?v4 Dtree$ ))(= (fun_app$z (fun_app$e (map_sum$ ?v0 )?v1 )(ite ?v2 ?v3 (inr$ ?v4 )))(ite ?v2 (fun_app$z (fun_app$e (map_sum$ ?v0 )?v1 )?v3 )(inr$a (fun_app$c ?v1 ?v4 ))))):named a74 ))
(assert (! (forall ((?v0 T_T_fun$ )(?v1 Dtree_dtree_fun$ )(?v2 Dtree$ ))(! (= (fun_app$y (fun_app$k (map_sum$a ?v0 )?v1 )(inr$ ?v2 ))(inr$ (fun_app$l ?v1 ?v2 ))):pattern ((fun_app$y (fun_app$k (map_sum$a ?v0 )?v1 )(inr$ ?v2 ))))):named a75 ))
(assert (! (forall ((?v0 T_T_fun$ )(?v1 N_dtree_fun$ )(?v2 N$ ))(! (= (fun_app$aa (fun_app$m (map_sum$b ?v0 )?v1 )(inr$a ?v2 ))(inr$ (fun_app$d ?v1 ?v2 ))):pattern ((fun_app$aa (fun_app$m (map_sum$b ?v0 )?v1 )(inr$a ?v2 ))))):named a76 ))
(assert (! (forall ((?v0 T_T_fun$ )(?v1 N_N_fun$ )(?v2 N$ ))(! (= (fun_app$ab (fun_app$o (map_sum$c ?v0 )?v1 )(inr$a ?v2 ))(inr$a (fun_app$p ?v1 ?v2 ))):pattern ((fun_app$ab (fun_app$o (map_sum$c ?v0 )?v1 )(inr$a ?v2 ))))):named a77 ))
(assert (! (forall ((?v0 T_T_fun$ )(?v1 Dtree_N_fun$ )(?v2 Dtree$ ))(! (= (fun_app$z (fun_app$e (map_sum$ ?v0 )?v1 )(inr$ ?v2 ))(inr$a (fun_app$c ?v1 ?v2 ))):pattern ((fun_app$z (fun_app$e (map_sum$ ?v0 )?v1 )(inr$ ?v2 ))))):named a78 ))
(assert (! (forall ((?v0 T_T_fun$ )(?v1 Dtree_dtree_fun$ )(?v2 T_dtree_sum$ )(?v3 Dtree$ ))(=> (= (fun_app$y (fun_app$k (map_sum$a ?v0 )?v1 )?v2 )(inr$ ?v3 ))(exists ((?v4 Dtree$ ))(and (= ?v2 (inr$ ?v4 ))(= (fun_app$l ?v1 ?v4 )?v3 ))))):named a79 ))
(assert (! (forall ((?v0 T_T_fun$ )(?v1 N_dtree_fun$ )(?v2 T_N_sum$ )(?v3 Dtree$ ))(=> (= (fun_app$aa (fun_app$m (map_sum$b ?v0 )?v1 )?v2 )(inr$ ?v3 ))(exists ((?v4 N$ ))(and (= ?v2 (inr$a ?v4 ))(= (fun_app$d ?v1 ?v4 )?v3 ))))):named a80 ))
(assert (! (forall ((?v0 T_T_fun$ )(?v1 N_N_fun$ )(?v2 T_N_sum$ )(?v3 N$ ))(=> (= (fun_app$ab (fun_app$o (map_sum$c ?v0 )?v1 )?v2 )(inr$a ?v3 ))(exists ((?v4 N$ ))(and (= ?v2 (inr$a ?v4 ))(= (fun_app$p ?v1 ?v4 )?v3 ))))):named a81 ))
(assert (! (forall ((?v0 T_T_fun$ )(?v1 Dtree_N_fun$ )(?v2 T_dtree_sum$ )(?v3 N$ ))(=> (= (fun_app$z (fun_app$e (map_sum$ ?v0 )?v1 )?v2 )(inr$a ?v3 ))(exists ((?v4 Dtree$ ))(and (= ?v2 (inr$ ?v4 ))(= (fun_app$c ?v1 ?v4 )?v3 ))))):named a82 ))
(assert (! (forall ((?v0 N$ )(?v1 N_set$ )(?v2 N_N_fun$ ))(=> (member$b ?v0 ?v1 )(member$b (fun_app$p ?v2 ?v0 )(fun_app$q (image$g ?v2 )?v1 )))):named a83 ))
(assert (! (forall ((?v0 T_dtree_sum$ )(?v1 T_dtree_sum_set$ )(?v2 T_dtree_sum_N_fun$ ))(=> (member$ ?v0 ?v1 )(member$b (fun_app$u ?v2 ?v0 )(image$i ?v2 ?v1 )))):named a84 ))
(assert (! (forall ((?v0 T_N_sum$ )(?v1 T_N_sum_set$ )(?v2 T_N_sum_N_fun$ ))(=> (member$a ?v0 ?v1 )(member$b (fun_app$v ?v2 ?v0 )(image$j ?v2 ?v1 )))):named a85 ))
(assert (! (forall ((?v0 N$ )(?v1 N_set$ )(?v2 N_T_dtree_sum_fun$ ))(=> (member$b ?v0 ?v1 )(member$ (fun_app$w ?v2 ?v0 )(image$k ?v2 ?v1 )))):named a86 ))
(assert (! (forall ((?v0 N$ )(?v1 N_set$ )(?v2 N_T_N_sum_fun$ ))(=> (member$b ?v0 ?v1 )(member$a (fun_app$x ?v2 ?v0 )(image$l ?v2 ?v1 )))):named a87 ))
(assert (! (forall ((?v0 T_dtree_sum$ )(?v1 T_dtree_sum_set$ )(?v2 T_dtree_sum_T_dtree_sum_fun$ ))(=> (member$ ?v0 ?v1 )(member$ (fun_app$y ?v2 ?v0 )(fun_app$j (image$a ?v2 )?v1 )))):named a88 ))
(assert (! (forall ((?v0 T_dtree_sum$ )(?v1 T_dtree_sum_set$ )(?v2 T_dtree_sum_T_N_sum_fun$ ))(=> (member$ ?v0 ?v1 )(member$a (fun_app$z ?v2 ?v0 )(image$ ?v2 ?v1 )))):named a89 ))
(assert (! (forall ((?v0 T_N_sum$ )(?v1 T_N_sum_set$ )(?v2 T_N_sum_T_dtree_sum_fun$ ))(=> (member$a ?v0 ?v1 )(member$ (fun_app$aa ?v2 ?v0 )(image$b ?v2 ?v1 )))):named a90 ))
(assert (! (forall ((?v0 T_N_sum$ )(?v1 T_N_sum_set$ )(?v2 T_N_sum_T_N_sum_fun$ ))(=> (member$a ?v0 ?v1 )(member$a (fun_app$ab ?v2 ?v0 )(fun_app$n (image$c ?v2 )?v1 )))):named a91 ))
(assert (! (forall ((?v0 T$ )(?v1 T_set$ )(?v2 T_T_fun$ ))(=> (member$c ?v0 ?v1 )(member$c (fun_app$t ?v2 ?v0 )(fun_app$s (image$h ?v2 )?v1 )))):named a92 ))
(assert (! (forall ((?v0 N$ )(?v1 N_set$ )(?v2 N$ )(?v3 N_N_fun$ ))(=> (and (member$b ?v0 ?v1 )(= ?v2 (fun_app$p ?v3 ?v0 )))(member$b ?v2 (fun_app$q (image$g ?v3 )?v1 )))):named a93 ))
(assert (! (forall ((?v0 T_dtree_sum$ )(?v1 T_dtree_sum_set$ )(?v2 N$ )(?v3 T_dtree_sum_N_fun$ ))(=> (and (member$ ?v0 ?v1 )(= ?v2 (fun_app$u ?v3 ?v0 )))(member$b ?v2 (image$i ?v3 ?v1 )))):named a94 ))
(assert (! (forall ((?v0 T_N_sum$ )(?v1 T_N_sum_set$ )(?v2 N$ )(?v3 T_N_sum_N_fun$ ))(=> (and (member$a ?v0 ?v1 )(= ?v2 (fun_app$v ?v3 ?v0 )))(member$b ?v2 (image$j ?v3 ?v1 )))):named a95 ))
(assert (! (forall ((?v0 N$ )(?v1 N_set$ )(?v2 T_dtree_sum$ )(?v3 N_T_dtree_sum_fun$ ))(=> (and (member$b ?v0 ?v1 )(= ?v2 (fun_app$w ?v3 ?v0 )))(member$ ?v2 (image$k ?v3 ?v1 )))):named a96 ))
(assert (! (forall ((?v0 N$ )(?v1 N_set$ )(?v2 T_N_sum$ )(?v3 N_T_N_sum_fun$ ))(=> (and (member$b ?v0 ?v1 )(= ?v2 (fun_app$x ?v3 ?v0 )))(member$a ?v2 (image$l ?v3 ?v1 )))):named a97 ))
(assert (! (forall ((?v0 T_dtree_sum$ )(?v1 T_dtree_sum_set$ )(?v2 T_dtree_sum$ )(?v3 T_dtree_sum_T_dtree_sum_fun$ ))(=> (and (member$ ?v0 ?v1 )(= ?v2 (fun_app$y ?v3 ?v0 )))(member$ ?v2 (fun_app$j (image$a ?v3 )?v1 )))):named a98 ))
(assert (! (forall ((?v0 T_dtree_sum$ )(?v1 T_dtree_sum_set$ )(?v2 T_N_sum$ )(?v3 T_dtree_sum_T_N_sum_fun$ ))(=> (and (member$ ?v0 ?v1 )(= ?v2 (fun_app$z ?v3 ?v0 )))(member$a ?v2 (image$ ?v3 ?v1 )))):named a99 ))
(assert (! (forall ((?v0 T_N_sum$ )(?v1 T_N_sum_set$ )(?v2 T_dtree_sum$ )(?v3 T_N_sum_T_dtree_sum_fun$ ))(=> (and (member$a ?v0 ?v1 )(= ?v2 (fun_app$aa ?v3 ?v0 )))(member$ ?v2 (image$b ?v3 ?v1 )))):named a100 ))
(assert (! (forall ((?v0 T_N_sum$ )(?v1 T_N_sum_set$ )(?v2 T_N_sum$ )(?v3 T_N_sum_T_N_sum_fun$ ))(=> (and (member$a ?v0 ?v1 )(= ?v2 (fun_app$ab ?v3 ?v0 )))(member$a ?v2 (fun_app$n (image$c ?v3 )?v1 )))):named a101 ))
(assert (! (forall ((?v0 T$ )(?v1 T_set$ )(?v2 T$ )(?v3 T_T_fun$ ))(=> (and (member$c ?v0 ?v1 )(= ?v2 (fun_app$t ?v3 ?v0 )))(member$c ?v2 (fun_app$s (image$h ?v3 )?v1 )))):named a102 ))
(assert (! (forall ((?v0 N_N_fun$ )(?v1 N_set$ )(?v2 N_bool_fun$ ))(=> (forall ((?v3 N$ ))(=> (member$b ?v3 (fun_app$q (image$g ?v0 )?v1 ))(fun_app$b ?v2 ?v3 )))(forall ((?v3 N$ ))(=> (member$b ?v3 ?v1 )(fun_app$b ?v2 (fun_app$p ?v0 ?v3 )))))):named a103 ))
(assert (! (forall ((?v0 N_T_dtree_sum_fun$ )(?v1 N_set$ )(?v2 T_dtree_sum_bool_fun$ ))(=> (forall ((?v3 T_dtree_sum$ ))(=> (member$ ?v3 (image$k ?v0 ?v1 ))(fun_app$ ?v2 ?v3 )))(forall ((?v3 N$ ))(=> (member$b ?v3 ?v1 )(fun_app$ ?v2 (fun_app$w ?v0 ?v3 )))))):named a104 ))
(assert (! (forall ((?v0 N_T_N_sum_fun$ )(?v1 N_set$ )(?v2 T_N_sum_bool_fun$ ))(=> (forall ((?v3 T_N_sum$ ))(=> (member$a ?v3 (image$l ?v0 ?v1 ))(fun_app$a ?v2 ?v3 )))(forall ((?v3 N$ ))(=> (member$b ?v3 ?v1 )(fun_app$a ?v2 (fun_app$x ?v0 ?v3 )))))):named a105 ))
(assert (! (forall ((?v0 T_dtree_sum_N_fun$ )(?v1 T_dtree_sum_set$ )(?v2 N_bool_fun$ ))(=> (forall ((?v3 N$ ))(=> (member$b ?v3 (image$i ?v0 ?v1 ))(fun_app$b ?v2 ?v3 )))(forall ((?v3 T_dtree_sum$ ))(=> (member$ ?v3 ?v1 )(fun_app$b ?v2 (fun_app$u ?v0 ?v3 )))))):named a106 ))
(assert (! (forall ((?v0 T_N_sum_N_fun$ )(?v1 T_N_sum_set$ )(?v2 N_bool_fun$ ))(=> (forall ((?v3 N$ ))(=> (member$b ?v3 (image$j ?v0 ?v1 ))(fun_app$b ?v2 ?v3 )))(forall ((?v3 T_N_sum$ ))(=> (member$a ?v3 ?v1 )(fun_app$b ?v2 (fun_app$v ?v0 ?v3 )))))):named a107 ))
(assert (! (forall ((?v0 T_dtree_sum_T_dtree_sum_fun$ )(?v1 T_dtree_sum_set$ )(?v2 T_dtree_sum_bool_fun$ ))(=> (forall ((?v3 T_dtree_sum$ ))(=> (member$ ?v3 (fun_app$j (image$a ?v0 )?v1 ))(fun_app$ ?v2 ?v3 )))(forall ((?v3 T_dtree_sum$ ))(=> (member$ ?v3 ?v1 )(fun_app$ ?v2 (fun_app$y ?v0 ?v3 )))))):named a108 ))
(assert (! (forall ((?v0 T_N_sum_T_dtree_sum_fun$ )(?v1 T_N_sum_set$ )(?v2 T_dtree_sum_bool_fun$ ))(=> (forall ((?v3 T_dtree_sum$ ))(=> (member$ ?v3 (image$b ?v0 ?v1 ))(fun_app$ ?v2 ?v3 )))(forall ((?v3 T_N_sum$ ))(=> (member$a ?v3 ?v1 )(fun_app$ ?v2 (fun_app$aa ?v0 ?v3 )))))):named a109 ))
(assert (! (forall ((?v0 T_dtree_sum_T_N_sum_fun$ )(?v1 T_dtree_sum_set$ )(?v2 T_N_sum_bool_fun$ ))(=> (forall ((?v3 T_N_sum$ ))(=> (member$a ?v3 (image$ ?v0 ?v1 ))(fun_app$a ?v2 ?v3 )))(forall ((?v3 T_dtree_sum$ ))(=> (member$ ?v3 ?v1 )(fun_app$a ?v2 (fun_app$z ?v0 ?v3 )))))):named a110 ))
(assert (! (forall ((?v0 T_N_sum_T_N_sum_fun$ )(?v1 T_N_sum_set$ )(?v2 T_N_sum_bool_fun$ ))(=> (forall ((?v3 T_N_sum$ ))(=> (member$a ?v3 (fun_app$n (image$c ?v0 )?v1 ))(fun_app$a ?v2 ?v3 )))(forall ((?v3 T_N_sum$ ))(=> (member$a ?v3 ?v1 )(fun_app$a ?v2 (fun_app$ab ?v0 ?v3 )))))):named a111 ))
(assert (! (forall ((?v0 T_T_fun$ )(?v1 T_set$ )(?v2 T_bool_fun$ ))(=> (forall ((?v3 T$ ))(=> (member$c ?v3 (fun_app$s (image$h ?v0 )?v1 ))(fun_app$f ?v2 ?v3 )))(forall ((?v3 T$ ))(=> (member$c ?v3 ?v1 )(fun_app$f ?v2 (fun_app$t ?v0 ?v3 )))))):named a112 ))
(assert (! (forall ((?v0 N_N_fun$ )(?v1 N_set$ )(?v2 N_bool_fun$ ))(=> (exists ((?v3 N$ ))(and (member$b ?v3 (fun_app$q (image$g ?v0 )?v1 ))(fun_app$b ?v2 ?v3 )))(exists ((?v3 N$ ))(and (member$b ?v3 ?v1 )(fun_app$b ?v2 (fun_app$p ?v0 ?v3 )))))):named a113 ))
(assert (! (forall ((?v0 N_T_dtree_sum_fun$ )(?v1 N_set$ )(?v2 T_dtree_sum_bool_fun$ ))(=> (exists ((?v3 T_dtree_sum$ ))(and (member$ ?v3 (image$k ?v0 ?v1 ))(fun_app$ ?v2 ?v3 )))(exists ((?v3 N$ ))(and (member$b ?v3 ?v1 )(fun_app$ ?v2 (fun_app$w ?v0 ?v3 )))))):named a114 ))
(assert (! (forall ((?v0 N_T_N_sum_fun$ )(?v1 N_set$ )(?v2 T_N_sum_bool_fun$ ))(=> (exists ((?v3 T_N_sum$ ))(and (member$a ?v3 (image$l ?v0 ?v1 ))(fun_app$a ?v2 ?v3 )))(exists ((?v3 N$ ))(and (member$b ?v3 ?v1 )(fun_app$a ?v2 (fun_app$x ?v0 ?v3 )))))):named a115 ))
(assert (! (forall ((?v0 T_dtree_sum_N_fun$ )(?v1 T_dtree_sum_set$ )(?v2 N_bool_fun$ ))(=> (exists ((?v3 N$ ))(and (member$b ?v3 (image$i ?v0 ?v1 ))(fun_app$b ?v2 ?v3 )))(exists ((?v3 T_dtree_sum$ ))(and (member$ ?v3 ?v1 )(fun_app$b ?v2 (fun_app$u ?v0 ?v3 )))))):named a116 ))
(assert (! (forall ((?v0 T_N_sum_N_fun$ )(?v1 T_N_sum_set$ )(?v2 N_bool_fun$ ))(=> (exists ((?v3 N$ ))(and (member$b ?v3 (image$j ?v0 ?v1 ))(fun_app$b ?v2 ?v3 )))(exists ((?v3 T_N_sum$ ))(and (member$a ?v3 ?v1 )(fun_app$b ?v2 (fun_app$v ?v0 ?v3 )))))):named a117 ))
(assert (! (forall ((?v0 T_dtree_sum_T_dtree_sum_fun$ )(?v1 T_dtree_sum_set$ )(?v2 T_dtree_sum_bool_fun$ ))(=> (exists ((?v3 T_dtree_sum$ ))(and (member$ ?v3 (fun_app$j (image$a ?v0 )?v1 ))(fun_app$ ?v2 ?v3 )))(exists ((?v3 T_dtree_sum$ ))(and (member$ ?v3 ?v1 )(fun_app$ ?v2 (fun_app$y ?v0 ?v3 )))))):named a118 ))
(assert (! (forall ((?v0 T_N_sum_T_dtree_sum_fun$ )(?v1 T_N_sum_set$ )(?v2 T_dtree_sum_bool_fun$ ))(=> (exists ((?v3 T_dtree_sum$ ))(and (member$ ?v3 (image$b ?v0 ?v1 ))(fun_app$ ?v2 ?v3 )))(exists ((?v3 T_N_sum$ ))(and (member$a ?v3 ?v1 )(fun_app$ ?v2 (fun_app$aa ?v0 ?v3 )))))):named a119 ))
(assert (! (forall ((?v0 T_dtree_sum_T_N_sum_fun$ )(?v1 T_dtree_sum_set$ )(?v2 T_N_sum_bool_fun$ ))(=> (exists ((?v3 T_N_sum$ ))(and (member$a ?v3 (image$ ?v0 ?v1 ))(fun_app$a ?v2 ?v3 )))(exists ((?v3 T_dtree_sum$ ))(and (member$ ?v3 ?v1 )(fun_app$a ?v2 (fun_app$z ?v0 ?v3 )))))):named a120 ))
(assert (! (forall ((?v0 T_N_sum_T_N_sum_fun$ )(?v1 T_N_sum_set$ )(?v2 T_N_sum_bool_fun$ ))(=> (exists ((?v3 T_N_sum$ ))(and (member$a ?v3 (fun_app$n (image$c ?v0 )?v1 ))(fun_app$a ?v2 ?v3 )))(exists ((?v3 T_N_sum$ ))(and (member$a ?v3 ?v1 )(fun_app$a ?v2 (fun_app$ab ?v0 ?v3 )))))):named a121 ))
(assert (! (forall ((?v0 T_T_fun$ )(?v1 T_set$ )(?v2 T_bool_fun$ ))(=> (exists ((?v3 T$ ))(and (member$c ?v3 (fun_app$s (image$h ?v0 )?v1 ))(fun_app$f ?v2 ?v3 )))(exists ((?v3 T$ ))(and (member$c ?v3 ?v1 )(fun_app$f ?v2 (fun_app$t ?v0 ?v3 )))))):named a122 ))
(assert (! (forall ((?v0 T_dtree_sum_set$ )(?v1 T_dtree_sum_set$ )(?v2 T_dtree_sum_T_dtree_sum_fun$ )(?v3 T_dtree_sum_T_dtree_sum_fun$ ))(=> (and (= ?v0 ?v1 )(forall ((?v4 T_dtree_sum$ ))(=> (member$ ?v4 ?v1 )(= (fun_app$y ?v2 ?v4 )(fun_app$y ?v3 ?v4 )))))(= (fun_app$j (image$a ?v2 )?v0 )(fun_app$j (image$a ?v3 )?v1 )))):named a123 ))
(assert (! (forall ((?v0 T_N_sum_set$ )(?v1 T_N_sum_set$ )(?v2 T_N_sum_T_dtree_sum_fun$ )(?v3 T_N_sum_T_dtree_sum_fun$ ))(=> (and (= ?v0 ?v1 )(forall ((?v4 T_N_sum$ ))(=> (member$a ?v4 ?v1 )(= (fun_app$aa ?v2 ?v4 )(fun_app$aa ?v3 ?v4 )))))(= (image$b ?v2 ?v0 )(image$b ?v3 ?v1 )))):named a124 ))
(assert (! (forall ((?v0 T_N_sum_set$ )(?v1 T_N_sum_set$ )(?v2 T_N_sum_T_N_sum_fun$ )(?v3 T_N_sum_T_N_sum_fun$ ))(=> (and (= ?v0 ?v1 )(forall ((?v4 T_N_sum$ ))(=> (member$a ?v4 ?v1 )(= (fun_app$ab ?v2 ?v4 )(fun_app$ab ?v3 ?v4 )))))(= (fun_app$n (image$c ?v2 )?v0 )(fun_app$n (image$c ?v3 )?v1 )))):named a125 ))
(assert (! (forall ((?v0 T_set$ )(?v1 T_set$ )(?v2 T_T_fun$ )(?v3 T_T_fun$ ))(=> (and (= ?v0 ?v1 )(forall ((?v4 T$ ))(=> (member$c ?v4 ?v1 )(= (fun_app$t ?v2 ?v4 )(fun_app$t ?v3 ?v4 )))))(= (fun_app$s (image$h ?v2 )?v0 )(fun_app$s (image$h ?v3 )?v1 )))):named a126 ))
(assert (! (forall ((?v0 T_N_sum_set$ )(?v1 T_N_sum_set$ )(?v2 T_N_sum_N_fun$ )(?v3 T_N_sum_N_fun$ ))(=> (and (= ?v0 ?v1 )(forall ((?v4 T_N_sum$ ))(=> (member$a ?v4 ?v1 )(= (fun_app$v ?v2 ?v4 )(fun_app$v ?v3 ?v4 )))))(= (image$j ?v2 ?v0 )(image$j ?v3 ?v1 )))):named a127 ))
(assert (! (forall ((?v0 N_set$ )(?v1 N_set$ )(?v2 N_T_dtree_sum_fun$ )(?v3 N_T_dtree_sum_fun$ ))(=> (and (= ?v0 ?v1 )(forall ((?v4 N$ ))(=> (member$b ?v4 ?v1 )(= (fun_app$w ?v2 ?v4 )(fun_app$w ?v3 ?v4 )))))(= (image$k ?v2 ?v0 )(image$k ?v3 ?v1 )))):named a128 ))
(assert (! (forall ((?v0 N_set$ )(?v1 N_set$ )(?v2 N_T_N_sum_fun$ )(?v3 N_T_N_sum_fun$ ))(=> (and (= ?v0 ?v1 )(forall ((?v4 N$ ))(=> (member$b ?v4 ?v1 )(= (fun_app$x ?v2 ?v4 )(fun_app$x ?v3 ?v4 )))))(= (image$l ?v2 ?v0 )(image$l ?v3 ?v1 )))):named a129 ))
(assert (! (forall ((?v0 N_set$ )(?v1 N_set$ )(?v2 N_N_fun$ )(?v3 N_N_fun$ ))(=> (and (= ?v0 ?v1 )(forall ((?v4 N$ ))(=> (member$b ?v4 ?v1 )(= (fun_app$p ?v2 ?v4 )(fun_app$p ?v3 ?v4 )))))(= (fun_app$q (image$g ?v2 )?v0 )(fun_app$q (image$g ?v3 )?v1 )))):named a130 ))
(assert (! (forall ((?v0 T_dtree_sum_set$ )(?v1 T_dtree_sum_set$ )(?v2 T_dtree_sum_T_N_sum_fun$ )(?v3 T_dtree_sum_T_N_sum_fun$ ))(=> (and (= ?v0 ?v1 )(forall ((?v4 T_dtree_sum$ ))(=> (member$ ?v4 ?v1 )(= (fun_app$z ?v2 ?v4 )(fun_app$z ?v3 ?v4 )))))(= (image$ ?v2 ?v0 )(image$ ?v3 ?v1 )))):named a131 ))
(assert (! (forall ((?v0 N_bool_fun$ )(?v1 N_bool_fun$ ))(=> (forall ((?v2 N$ ))(= (fun_app$b ?v0 ?v2 )(fun_app$b ?v1 ?v2 )))(= (collect$ ?v0 )(collect$ ?v1 )))):named a132 ))
(assert (! (forall ((?v0 T_N_sum_bool_fun$ )(?v1 T_N_sum_bool_fun$ ))(=> (forall ((?v2 T_N_sum$ ))(= (fun_app$a ?v0 ?v2 )(fun_app$a ?v1 ?v2 )))(= (collect$a ?v0 )(collect$a ?v1 )))):named a133 ))
(assert (! (forall ((?v0 T_dtree_sum_bool_fun$ )(?v1 T_dtree_sum_bool_fun$ ))(=> (forall ((?v2 T_dtree_sum$ ))(= (fun_app$ ?v0 ?v2 )(fun_app$ ?v1 ?v2 )))(= (collect$b ?v0 )(collect$b ?v1 )))):named a134 ))
(assert (! (forall ((?v0 T_dtree_sum_set$ ))(= (collect$b (uu$ ?v0 ))?v0 )):named a135 ))
(assert (! (forall ((?v0 T_N_sum_set$ ))(= (collect$a (uua$ ?v0 ))?v0 )):named a136 ))
(assert (! (forall ((?v0 N_set$ ))(= (collect$ (uub$ ?v0 ))?v0 )):named a137 ))
(assert (! (forall ((?v0 T_dtree_sum$ )(?v1 T_dtree_sum_bool_fun$ ))(= (member$ ?v0 (collect$b ?v1 ))(fun_app$ ?v1 ?v0 ))):named a138 ))
(assert (! (forall ((?v0 T_N_sum$ )(?v1 T_N_sum_bool_fun$ ))(= (member$a ?v0 (collect$a ?v1 ))(fun_app$a ?v1 ?v0 ))):named a139 ))
(assert (! (forall ((?v0 N$ )(?v1 N_bool_fun$ ))(= (member$b ?v0 (collect$ ?v1 ))(fun_app$b ?v1 ?v0 ))):named a140 ))
(assert (! (forall ((?v0 T$ )(?v1 T_T_fun$ )(?v2 T_set$ ))(= (member$c ?v0 (fun_app$s (image$h ?v1 )?v2 ))(exists ((?v3 T$ ))(and (member$c ?v3 ?v2 )(= ?v0 (fun_app$t ?v1 ?v3 )))))):named a141 ))
(assert (! (forall ((?v0 T_dtree_sum$ )(?v1 T_dtree_sum_T_dtree_sum_fun$ )(?v2 T_dtree_sum_set$ ))(= (member$ ?v0 (fun_app$j (image$a ?v1 )?v2 ))(exists ((?v3 T_dtree_sum$ ))(and (member$ ?v3 ?v2 )(= ?v0 (fun_app$y ?v1 ?v3 )))))):named a142 ))
(assert (! (forall ((?v0 T_dtree_sum$ )(?v1 T_N_sum_T_dtree_sum_fun$ )(?v2 T_N_sum_set$ ))(= (member$ ?v0 (image$b ?v1 ?v2 ))(exists ((?v3 T_N_sum$ ))(and (member$a ?v3 ?v2 )(= ?v0 (fun_app$aa ?v1 ?v3 )))))):named a143 ))
(assert (! (forall ((?v0 T_dtree_sum$ )(?v1 N_T_dtree_sum_fun$ )(?v2 N_set$ ))(= (member$ ?v0 (image$k ?v1 ?v2 ))(exists ((?v3 N$ ))(and (member$b ?v3 ?v2 )(= ?v0 (fun_app$w ?v1 ?v3 )))))):named a144 ))
(assert (! (forall ((?v0 T_N_sum$ )(?v1 T_dtree_sum_T_N_sum_fun$ )(?v2 T_dtree_sum_set$ ))(= (member$a ?v0 (image$ ?v1 ?v2 ))(exists ((?v3 T_dtree_sum$ ))(and (member$ ?v3 ?v2 )(= ?v0 (fun_app$z ?v1 ?v3 )))))):named a145 ))
(assert (! (forall ((?v0 T_N_sum$ )(?v1 T_N_sum_T_N_sum_fun$ )(?v2 T_N_sum_set$ ))(= (member$a ?v0 (fun_app$n (image$c ?v1 )?v2 ))(exists ((?v3 T_N_sum$ ))(and (member$a ?v3 ?v2 )(= ?v0 (fun_app$ab ?v1 ?v3 )))))):named a146 ))
(assert (! (forall ((?v0 T_N_sum$ )(?v1 N_T_N_sum_fun$ )(?v2 N_set$ ))(= (member$a ?v0 (image$l ?v1 ?v2 ))(exists ((?v3 N$ ))(and (member$b ?v3 ?v2 )(= ?v0 (fun_app$x ?v1 ?v3 )))))):named a147 ))
(assert (! (forall ((?v0 N$ )(?v1 T_dtree_sum_N_fun$ )(?v2 T_dtree_sum_set$ ))(= (member$b ?v0 (image$i ?v1 ?v2 ))(exists ((?v3 T_dtree_sum$ ))(and (member$ ?v3 ?v2 )(= ?v0 (fun_app$u ?v1 ?v3 )))))):named a148 ))
(assert (! (forall ((?v0 N$ )(?v1 T_N_sum_N_fun$ )(?v2 T_N_sum_set$ ))(= (member$b ?v0 (image$j ?v1 ?v2 ))(exists ((?v3 T_N_sum$ ))(and (member$a ?v3 ?v2 )(= ?v0 (fun_app$v ?v1 ?v3 )))))):named a149 ))
(assert (! (forall ((?v0 N$ )(?v1 N_N_fun$ )(?v2 N_set$ ))(= (member$b ?v0 (fun_app$q (image$g ?v1 )?v2 ))(exists ((?v3 N$ ))(and (member$b ?v3 ?v2 )(= ?v0 (fun_app$p ?v1 ?v3 )))))):named a150 ))
(assert (! (forall ((?v0 T_set$ ))(! (= (fun_app$s id$i ?v0 )?v0 ):pattern ((fun_app$s id$i ?v0 )))):named a151 ))
(assert (! (forall ((?v0 T$ ))(! (= (fun_app$t id$ ?v0 )?v0 ):pattern ((fun_app$t id$ ?v0 )))):named a152 ))
(assert (! (forall ((?v0 Dtree$ )(?v1 Dtree$ ))(=> (= (inr$ ?v0 )(inr$ ?v1 ))(= ?v0 ?v1 ))):named a153 ))
(assert (! (forall ((?v0 N$ )(?v1 N$ ))(=> (= (inr$a ?v0 )(inr$a ?v1 ))(= ?v0 ?v1 ))):named a154 ))
(check-sat )
(get-unsat-core )
